 ! --------------------------------------------------- CP Optimizer 22.1.1.0 --
 ! Satisfiability problem - 61000 variables, 815515 constraints
 ! Presolve      : 37500 extractables eliminated
 ! TimeLimit            = 3600
 ! Workers              = 1
 ! Initial process time : 7.38s (7.36s extraction + 0.03s propagation)
 !  . Log search space  : 625675.5 (before), 625675.5 (after)
 !  . Memory usage      : 475.4 MB (before), 475.4 MB (after)
 ! Using sequential search.
 ! ----------------------------------------------------------------------------
 !               Branches  Non-fixed            Branch decision
                     1099      60225        F          presenceOf(copy_bus_parking:45_0)
                     2244      58669        F          presenceOf(copy_trips:16_0)
                     3000      51003                   presenceOf(copy_trips:39_322)
                     4000      38898                   presenceOf(copy_trips:36_340)
                     5000      39276                   presenceOf(copy_bus_parking:18_171)
                     6000      27330                   presenceOf(copy_trips:28_353)
                     7000      38596                   presenceOf(copy_lane_parking:8_138)
                     8000      53943                   presenceOf(copy_trips:47_28)
                     9000      49988            245 != endOf(start_parking:45)
                    10000      20773                  !presenceOf(copy_trips:19_272)
                    11000      20773        F          presenceOf(copy_bus_parking:5_35)
                    12000      21012                   presenceOf(copy_trips:27_373)
                    13000      20661        F          presenceOf(copy_bus_parking:11_0)
                    14000      54242                  !presenceOf(copy_bus_parking:41_0)
                    15000      51229                   presenceOf(copy_lane_parking:5_109)
                    16000      38599                  !presenceOf(copy_trips:26_11)
                    17000      47317                   presenceOf(copy_lane_parking:9_254)
                    18000      26244                   presenceOf(copy_lane_parking:3_51)
                    19000      38593        F          presenceOf(copy_trips:23_372)
                    20000      38596                   presenceOf(copy_lane_parking:1_22)
 ! Time = 56.44s, Average fail depth = 345, Memory usage = 1.8 GB
 !               Branches  Non-fixed            Branch decision
                    21000      41362                  !presenceOf(copy_trips:40_56)
                    22000      20503                  !presenceOf(copy_trips:37_365)
                    23000      20503        F          presenceOf(copy_bus_parking:5_272)
                    24000      20503        F          presenceOf(copy_bus_parking:8_272)
                    25000      20503        F          presenceOf(copy_bus_parking:34_272)
                    26000      20638        F          presenceOf(copy_trips:48_368)
                    27000      38608        F          presenceOf(copy_trips:13_368)
                    28000      38608                  !presenceOf(copy_bus_parking:0_372)
                    29000      38608                   presenceOf(copy_lane_parking:2_209)
                    30000      38602            245 != endOf(start_parking:44)
                    31000      43656                   presenceOf(copy_lane_parking:3_99)
                    32000      38599                   presenceOf(copy_trips:15_107)
                    33000      45924        F         !presenceOf(copy_bus_parking:6_4)
                    34000      40623        F          presenceOf(copy_bus_parking:45_18)
                    35000      41690                   presenceOf(copy_lane_parking:2_15)
                    36000      20538                   presenceOf(copy_lane_parking:8_373)
                    37000      42121                   presenceOf(copy_lane_parking:2_331)
                    38000      38599                   presenceOf(copy_trips:46_263)
                    39000      37274                   presenceOf(copy_trips:35_27)
                    40000      34713                   presenceOf(copy_lane_parking:0_266)
 ! Time = 95.92s, Average fail depth = 426, Memory usage = 1.8 GB
 !               Branches  Non-fixed            Branch decision
                    41000      38596                   presenceOf(copy_lane_parking:1_253)
                    42000      26253        F          presenceOf(copy_trips:29_44)
                    43000      26253                   presenceOf(copy_lane_parking:3_203)
                    44000      48342                   presenceOf(copy_lane_parking:0_304)
                    45000      41455                  !presenceOf(copy_bus_parking:7_56)
                    46000      20544                  !presenceOf(copy_bus_parking:30_253)
                    47000      20544        F         !presenceOf(copy_bus_parking:5_3)
                    48000      38596                  !presenceOf(copy_bus_parking:39_372)
                    49000      38593                  !presenceOf(copy_bus_parking:21_372)
                    50000      38596                  !presenceOf(copy_bus_parking:49_372)
                    51000      38599                   presenceOf(copy_lane_parking:5_259)
                    52000      20537                  !presenceOf(copy_trips:0_253)
                    53000      20537        F         !presenceOf(copy_trips:9_253)
                    54000      20537                  !presenceOf(copy_trips:27_253)
                    55000      20537                   presenceOf(copy_lane_parking:1_246)
                    56000      41025        F          presenceOf(copy_trips:1_56)
                    57000      40878                  !presenceOf(copy_trips:22_30)
                    58000      40860        F          presenceOf(copy_trips:13_18)
                    59000      40875                  !presenceOf(copy_trips:47_30)
                    60000      40848                  !presenceOf(copy_trips:17_30)
 ! Time = 134.96s, Average fail depth = 461, Memory usage = 1.8 GB
 !               Branches  Non-fixed            Branch decision
                    61000      40878                  !presenceOf(copy_trips:8_30)
                    62000      40851        F          presenceOf(copy_trips:33_18)
                    63000      40990                  !presenceOf(copy_trips:22_30)
                    64000      40993        F          presenceOf(copy_trips:22_18)
                    65000      41023                  !presenceOf(copy_trips:7_18)
                    66000      40996                  !presenceOf(copy_trips:21_30)
                    67000      41127                  !presenceOf(copy_trips:41_30)
                    68000      41109                  !presenceOf(copy_trips:26_30)
                    69000      38596                   presenceOf(copy_lane_parking:7_199)
                    70000      56124                   presenceOf(copy_lane_parking:2_184)
                    71000      40964                   presenceOf(copy_trips:48_352)
                    72000      38602                   presenceOf(copy_lane_parking:1_292)
                    73000      26666        F          presenceOf(copy_bus_parking:41_44)
                    74000      26666                  !presenceOf(copy_trips:22_4)
                    75000      35462                   presenceOf(copy_trips:10_3)
                    76000      35462        F          presenceOf(copy_trips:10_4)
                    77000      35462                   presenceOf(copy_lane_parking:4_136)
                    78000      43945                  !presenceOf(copy_bus_parking:6_32)
                    79000      40168                  !presenceOf(copy_trips:13_31)
                    80000      41612                  !presenceOf(copy_trips:12_31)
 ! Time = 177.94s, Average fail depth = 467, Memory usage = 1.8 GB
 !               Branches  Non-fixed            Branch decision
                    81000      41609                  !presenceOf(copy_trips:6_18)
                    82000      40155                  !presenceOf(copy_trips:40_18)
                    83000      41609        F          presenceOf(copy_trips:34_31)
                    84000      40964        F          presenceOf(copy_trips:8_31)
                    85000      40155        F          presenceOf(copy_trips:2_31)
                    86000      40228                  !presenceOf(copy_trips:4_31)
                    87000      40216                  !presenceOf(copy_trips:8_31)
                    88000      41567        F          presenceOf(copy_trips:11_31)
                    89000      40240                  !presenceOf(copy_trips:42_31)
                    90000      40228                  !presenceOf(copy_trips:11_31)
                    91000      35678        F          presenceOf(copy_bus_parking:31_8)
                    92000      35678                   presenceOf(copy_lane_parking:7_153)
                    93000      20535                   presenceOf(copy_lane_parking:8_189)
                    94000      20770        F          presenceOf(copy_trips:18_272)
                    95000      20773        F          presenceOf(copy_bus_parking:10_60)
                    96000      43095                  !presenceOf(copy_trips:48_95)
                    97000      40900                   presenceOf(copy_lane_parking:4_276)
                    98000      38608                   presenceOf(copy_lane_parking:7_83)
                    99000      40722                   presenceOf(copy_bus_parking:24_129)
                     100k      27179        F          presenceOf(copy_bus_parking:22_0)
 ! Time = 229.88s, Average fail depth = 466, Memory usage = 1.8 GB
 !               Branches  Non-fixed            Branch decision
                     101k      38608        F          presenceOf(copy_trips:6_372)
                     102k      38608            on charge:2_3
                     103k      31396        F         !presenceOf(copy_bus_parking:14_24)
                     104k      31393                   presenceOf(copy_trips:17_41)
                     105k      26687        F          presenceOf(copy_bus_parking:37_44)
                     106k      26687        F          presenceOf(copy_bus_parking:12_44)
                     107k      26687                  !presenceOf(copy_trips:35_50)
                     108k      26687        F         !presenceOf(copy_bus_parking:20_1)
                     109k      38605                   presenceOf(copy_lane_parking:6_152)
                     110k      43422                   presenceOf(copy_lane_parking:6_173)
                     111k      38596                  !presenceOf(copy_bus_parking:31_368)
                     112k      38596        F          presenceOf(copy_trips:18_374)
                     113k      38602        F          presenceOf(copy_bus_parking:4_372)
                     114k      38596        F         !presenceOf(copy_bus_parking:40_368)
                     115k      38596        F         !presenceOf(copy_bus_parking:40_368)
                     116k      38599                  !presenceOf(copy_bus_parking:8_368)
                     117k      38599                  !presenceOf(copy_bus_parking:26_368)
                     118k      38599                  !presenceOf(copy_bus_parking:3_368)
                     119k      38599        F          presenceOf(copy_trips:18_374)
                     120k      38596                  !presenceOf(copy_bus_parking:34_368)
 ! Time = 261.22s, Average fail depth = 473, Memory usage = 1.8 GB
 !               Branches  Non-fixed            Branch decision
                     121k      38596                  !presenceOf(copy_bus_parking:37_368)
                     122k      38599                  !presenceOf(copy_bus_parking:23_368)
                     123k      38590                  !presenceOf(copy_bus_parking:6_368)
                     124k      20667                  !presenceOf(copy_bus_parking:39_272)
                     125k      20667                   presenceOf(copy_lane_parking:5_150)
                     126k      36298                  !presenceOf(copy_trips:15_11)
                     127k      38605        F          presenceOf(copy_trips:37_372)
                     128k      38605                   presenceOf(copy_trips:18_174)
                     129k      26681                   presenceOf(copy_lane_parking:0_97)
                     130k      24759                  !presenceOf(copy_bus_parking:22_60)
                     131k      24759        F          presenceOf(copy_trips:2_18)
                     132k      38596        F          presenceOf(copy_bus_parking:17_368)
                     133k      38599                   presenceOf(copy_trips:25_363)
                     134k      38596        F          presenceOf(copy_trips:16_368)
                     135k      38593        F          presenceOf(copy_trips:7_368)
                     136k      38593                   presenceOf(copy_trips:17_368)
                     137k      38599        F         !presenceOf(copy_bus_parking:35_374)
                     138k      38608        F          presenceOf(copy_trips:27_368)
                     139k      38608                  !presenceOf(copy_trips:48_372)
                     140k      38611                   presenceOf(copy_lane_parking:1_81)
 ! Time = 299.67s, Average fail depth = 476, Memory usage = 1.8 GB
 !               Branches  Non-fixed            Branch decision
                     141k      28889                   presenceOf(copy_lane_parking:1_303)
                     142k      38605                  !presenceOf(copy_bus_parking:45_368)
                     143k      38605        F          presenceOf(copy_trips:49_374)
                     144k      38608        F          presenceOf(copy_trips:49_374)
                     145k      38602        F          presenceOf(copy_bus_parking:3_0)
                     146k      46674                   presenceOf(copy_bus_parking:23_2)
                     147k      41564                  !presenceOf(copy_trips:39_18)
                     148k      38593                  !presenceOf(copy_trips:4_6)
                     149k      44343        F          presenceOf(copy_trips:7_1)
                     150k      42327        F          presenceOf(copy_trips:19_111)
                     151k      26524                   presenceOf(copy_trips:32_213)
                     152k      14764        F          presenceOf(copy_trips:10_270)
                     153k       3313                  !presenceOf(copy_trips:3_351)
                     154k       2799        F          presenceOf(copy_trips:2_372)
                     155k      38602        F          presenceOf(copy_bus_parking:36_31)
                     156k      41901                   presenceOf(copy_trips:13_169)
                     157k      25825                   presenceOf(copy_lane_parking:1_285)
                     158k      20538                   presenceOf(copy_lane_parking:0_91)
                     159k      38602        F          presenceOf(copy_trips:25_7)
                     160k      20534        F         !presenceOf(copy_bus_parking:22_365)
 ! Time = 344.85s, Average fail depth = 480, Memory usage = 1.9 GB
 !               Branches  Non-fixed            Branch decision
                     161k      20534        F         !presenceOf(copy_trips:24_0)
                     162k      50161                   presenceOf(copy_lane_parking:8_171)
                     163k      41955                  !presenceOf(copy_bus_parking:16_16)
                     164k      47235            245 != endOf(start_parking:9)
                     165k      54649                  !presenceOf(copy_trips:38_6)
                     166k      51714        F          presenceOf(copy_trips:0_45)
                     167k      44346                   presenceOf(copy_trips:10_16)
                     168k      49311                   presenceOf(copy_lane_parking:3_33)
                     169k      38602                  !presenceOf(copy_trips:3_368)
                     170k      38581        F         !presenceOf(copy_bus_parking:22_374)
                     171k      38575                  !presenceOf(copy_trips:29_1)
                     172k      52723        F          presenceOf(copy_trips:24_38)
                     173k      44337            on charge:12_10
                     174k      40291        F         !presenceOf(copy_trips:4_3)
                     175k      47284        F          presenceOf(copy_trips:15_3)
                     176k      47284                  !presenceOf(copy_bus_parking:33_2)
                     177k      47357                   presenceOf(copy_lane_parking:5_74)
                     178k      29558        F          presenceOf(copy_bus_parking:24_0)
                     179k      29528                   presenceOf(copy_bus_parking:33_25)
                     180k      29439        F          presenceOf(copy_trips:11_24)
 ! Time = 389.94s, Average fail depth = 464, Memory usage = 1.9 GB
 !               Branches  Non-fixed            Branch decision
                     181k      29396                  !presenceOf(copy_bus_parking:14_1)
                     182k      29402        F          presenceOf(copy_bus_parking:2_0)
                     183k      29983                  !presenceOf(copy_trips:6_31)
                     184k      29285                  !presenceOf(copy_bus_parking:37_18)
                     185k      29297        F          presenceOf(copy_bus_parking:14_0)
                     186k      29445        F          presenceOf(copy_bus_parking:0_0)
                     187k      29468        F          presenceOf(copy_bus_parking:24_0)
                     188k      29621                  !presenceOf(copy_bus_parking:0_18)
                     189k      29442        F          presenceOf(copy_bus_parking:10_0)
                     190k      29442        F          presenceOf(copy_bus_parking:22_0)
                     191k      29448        F   on charge:23_9
                     192k      31268        F          presenceOf(copy_trips:43_187)
                     193k      19261                   presenceOf(copy_trips:45_252)
                     194k       4772                  !presenceOf(copy_trips:12_263)
 *                   194k  419.88s                   -
 ! ----------------------------------------------------------------------------
 ! Search completed, 1 solution found.
 ! ----------------------------------------------------------------------------
 ! Number of branches     : 194512
 ! Number of fails        : 70290
 ! Total memory usage     : 2.0 GB (2.0 GB CP Optimizer + 0.0 GB Concert)
 ! Time spent in solve    : 419.88s (412.53s engine + 7.36s extraction)
 ! Search speed (br. / s) : 471.5
 ! ----------------------------------------------------------------------------
